T = 150;
V = 15;
Q = 15;
L = 5;
C = 4;
P = 15;
time = [|  0,  0, 16, 16, 19,  0, 16,  0,  0,  5, 19, 19, 19, 17, 16,  5, 16, 17, 17, 16, 19,  0,  5,  5, 19,  0, 17, 17,  0, 19,  4,  4,  4,  4,  4,  4,  4,  4,  4,  4,  4,  4,  4,  4,  4,  4,  4,  4,  4,  4,  4,  4,  4,  4,  4,  4,  4,  4,  4,  4,
        |  0,  0, 16, 16, 19,  0, 16,  0,  0,  5, 19, 19, 19, 17, 16,  5, 16, 17, 17, 16, 19,  0,  5,  5, 19,  0, 17, 17,  0, 19,  4,  4,  4,  4,  4,  4,  4,  4,  4,  4,  4,  4,  4,  4,  4,  4,  4,  4,  4,  4,  4,  4,  4,  4,  4,  4,  4,  4,  4,  4,
        | 16, 16,  0,  0, 18, 16,  0, 16, 16, 19, 18, 18, 18, 15,  0, 19,  0, 15, 15,  0, 18, 16, 19, 19, 18, 16, 15, 15, 16, 18, 13, 13, 13, 13, 13, 13, 13, 13, 13, 13, 13, 13, 13, 13, 13, 13, 13, 13, 13, 13, 13, 13, 13, 13, 13, 13, 13, 13, 13, 13,
        | 16, 16,  0,  0, 18, 16,  0, 16, 16, 19, 18, 18, 18, 15,  0, 19,  0, 15, 15,  0, 18, 16, 19, 19, 18, 16, 15, 15, 16, 18, 13, 13, 13, 13, 13, 13, 13, 13, 13, 13, 13, 13, 13, 13, 13, 13, 13, 13, 13, 13, 13, 13, 13, 13, 13, 13, 13, 13, 13, 13,
        | 19, 19, 18, 18,  0, 19, 18, 19, 19, 23,  0,  0,  0, 31, 18, 23, 18, 31, 31, 18,  0, 19, 23, 23,  0, 19, 31, 31, 19,  0, 20, 20, 20, 20, 20, 20, 20, 20, 20, 20, 20, 20, 20, 20, 20, 20, 20, 20, 20, 20, 20, 20, 20, 20, 20, 20, 20, 20, 20, 20,
        |  0,  0, 16, 16, 19,  0, 16,  0,  0,  5, 19, 19, 19, 17, 16,  5, 16, 17, 17, 16, 19,  0,  5,  5, 19,  0, 17, 17,  0, 19,  4,  4,  4,  4,  4,  4,  4,  4,  4,  4,  4,  4,  4,  4,  4,  4,  4,  4,  4,  4,  4,  4,  4,  4,  4,  4,  4,  4,  4,  4,
        | 16, 16,  0,  0, 18, 16,  0, 16, 16, 19, 18, 18, 18, 15,  0, 19,  0, 15, 15,  0, 18, 16, 19, 19, 18, 16, 15, 15, 16, 18, 13, 13, 13, 13, 13, 13, 13, 13, 13, 13, 13, 13, 13, 13, 13, 13, 13, 13, 13, 13, 13, 13, 13, 13, 13, 13, 13, 13, 13, 13,
        |  0,  0, 16, 16, 19,  0, 16,  0,  0,  5, 19, 19, 19, 17, 16,  5, 16, 17, 17, 16, 19,  0,  5,  5, 19,  0, 17, 17,  0, 19,  4,  4,  4,  4,  4,  4,  4,  4,  4,  4,  4,  4,  4,  4,  4,  4,  4,  4,  4,  4,  4,  4,  4,  4,  4,  4,  4,  4,  4,  4,
        |  0,  0, 16, 16, 19,  0, 16,  0,  0,  5, 19, 19, 19, 17, 16,  5, 16, 17, 17, 16, 19,  0,  5,  5, 19,  0, 17, 17,  0, 19,  4,  4,  4,  4,  4,  4,  4,  4,  4,  4,  4,  4,  4,  4,  4,  4,  4,  4,  4,  4,  4,  4,  4,  4,  4,  4,  4,  4,  4,  4,
        |  5,  5, 19, 19, 23,  5, 19,  5,  5,  0, 23, 23, 23, 16, 19,  0, 19, 16, 16, 19, 23,  5,  0,  0, 23,  5, 16, 16,  5, 23,  7,  7,  7,  7,  7,  7,  7,  7,  7,  7,  7,  7,  7,  7,  7,  7,  7,  7,  7,  7,  7,  7,  7,  7,  7,  7,  7,  7,  7,  7,
        | 19, 19, 18, 18,  0, 19, 18, 19, 19, 23,  0,  0,  0, 31, 18, 23, 18, 31, 31, 18,  0, 19, 23, 23,  0, 19, 31, 31, 19,  0, 20, 20, 20, 20, 20, 20, 20, 20, 20, 20, 20, 20, 20, 20, 20, 20, 20, 20, 20, 20, 20, 20, 20, 20, 20, 20, 20, 20, 20, 20,
        | 19, 19, 18, 18,  0, 19, 18, 19, 19, 23,  0,  0,  0, 31, 18, 23, 18, 31, 31, 18,  0, 19, 23, 23,  0, 19, 31, 31, 19,  0, 20, 20, 20, 20, 20, 20, 20, 20, 20, 20, 20, 20, 20, 20, 20, 20, 20, 20, 20, 20, 20, 20, 20, 20, 20, 20, 20, 20, 20, 20,
        | 19, 19, 18, 18,  0, 19, 18, 19, 19, 23,  0,  0,  0, 31, 18, 23, 18, 31, 31, 18,  0, 19, 23, 23,  0, 19, 31, 31, 19,  0, 20, 20, 20, 20, 20, 20, 20, 20, 20, 20, 20, 20, 20, 20, 20, 20, 20, 20, 20, 20, 20, 20, 20, 20, 20, 20, 20, 20, 20, 20,
        | 17, 17, 15, 15, 31, 17, 15, 17, 17, 16, 31, 31, 31,  0, 15, 16, 15,  0,  0, 15, 31, 17, 16, 16, 31, 17,  0,  0, 17, 31, 14, 14, 14, 14, 14, 14, 14, 14, 14, 14, 14, 14, 14, 14, 14, 14, 14, 14, 14, 14, 14, 14, 14, 14, 14, 14, 14, 14, 14, 14,
        | 16, 16,  0,  0, 18, 16,  0, 16, 16, 19, 18, 18, 18, 15,  0, 19,  0, 15, 15,  0, 18, 16, 19, 19, 18, 16, 15, 15, 16, 18, 13, 13, 13, 13, 13, 13, 13, 13, 13, 13, 13, 13, 13, 13, 13, 13, 13, 13, 13, 13, 13, 13, 13, 13, 13, 13, 13, 13, 13, 13,
        |  5,  5, 19, 19, 23,  5, 19,  5,  5,  0, 23, 23, 23, 16, 19,  0, 19, 16, 16, 19, 23,  5,  0,  0, 23,  5, 16, 16,  5, 23,  7,  7,  7,  7,  7,  7,  7,  7,  7,  7,  7,  7,  7,  7,  7,  7,  7,  7,  7,  7,  7,  7,  7,  7,  7,  7,  7,  7,  7,  7,
        | 16, 16,  0,  0, 18, 16,  0, 16, 16, 19, 18, 18, 18, 15,  0, 19,  0, 15, 15,  0, 18, 16, 19, 19, 18, 16, 15, 15, 16, 18, 13, 13, 13, 13, 13, 13, 13, 13, 13, 13, 13, 13, 13, 13, 13, 13, 13, 13, 13, 13, 13, 13, 13, 13, 13, 13, 13, 13, 13, 13,
        | 17, 17, 15, 15, 31, 17, 15, 17, 17, 16, 31, 31, 31,  0, 15, 16, 15,  0,  0, 15, 31, 17, 16, 16, 31, 17,  0,  0, 17, 31, 14, 14, 14, 14, 14, 14, 14, 14, 14, 14, 14, 14, 14, 14, 14, 14, 14, 14, 14, 14, 14, 14, 14, 14, 14, 14, 14, 14, 14, 14,
        | 17, 17, 15, 15, 31, 17, 15, 17, 17, 16, 31, 31, 31,  0, 15, 16, 15,  0,  0, 15, 31, 17, 16, 16, 31, 17,  0,  0, 17, 31, 14, 14, 14, 14, 14, 14, 14, 14, 14, 14, 14, 14, 14, 14, 14, 14, 14, 14, 14, 14, 14, 14, 14, 14, 14, 14, 14, 14, 14, 14,
        | 16, 16,  0,  0, 18, 16,  0, 16, 16, 19, 18, 18, 18, 15,  0, 19,  0, 15, 15,  0, 18, 16, 19, 19, 18, 16, 15, 15, 16, 18, 13, 13, 13, 13, 13, 13, 13, 13, 13, 13, 13, 13, 13, 13, 13, 13, 13, 13, 13, 13, 13, 13, 13, 13, 13, 13, 13, 13, 13, 13,
        | 19, 19, 18, 18,  0, 19, 18, 19, 19, 23,  0,  0,  0, 31, 18, 23, 18, 31, 31, 18,  0, 19, 23, 23,  0, 19, 31, 31, 19,  0, 20, 20, 20, 20, 20, 20, 20, 20, 20, 20, 20, 20, 20, 20, 20, 20, 20, 20, 20, 20, 20, 20, 20, 20, 20, 20, 20, 20, 20, 20,
        |  0,  0, 16, 16, 19,  0, 16,  0,  0,  5, 19, 19, 19, 17, 16,  5, 16, 17, 17, 16, 19,  0,  5,  5, 19,  0, 17, 17,  0, 19,  4,  4,  4,  4,  4,  4,  4,  4,  4,  4,  4,  4,  4,  4,  4,  4,  4,  4,  4,  4,  4,  4,  4,  4,  4,  4,  4,  4,  4,  4,
        |  5,  5, 19, 19, 23,  5, 19,  5,  5,  0, 23, 23, 23, 16, 19,  0, 19, 16, 16, 19, 23,  5,  0,  0, 23,  5, 16, 16,  5, 23,  7,  7,  7,  7,  7,  7,  7,  7,  7,  7,  7,  7,  7,  7,  7,  7,  7,  7,  7,  7,  7,  7,  7,  7,  7,  7,  7,  7,  7,  7,
        |  5,  5, 19, 19, 23,  5, 19,  5,  5,  0, 23, 23, 23, 16, 19,  0, 19, 16, 16, 19, 23,  5,  0,  0, 23,  5, 16, 16,  5, 23,  7,  7,  7,  7,  7,  7,  7,  7,  7,  7,  7,  7,  7,  7,  7,  7,  7,  7,  7,  7,  7,  7,  7,  7,  7,  7,  7,  7,  7,  7,
        | 19, 19, 18, 18,  0, 19, 18, 19, 19, 23,  0,  0,  0, 31, 18, 23, 18, 31, 31, 18,  0, 19, 23, 23,  0, 19, 31, 31, 19,  0, 20, 20, 20, 20, 20, 20, 20, 20, 20, 20, 20, 20, 20, 20, 20, 20, 20, 20, 20, 20, 20, 20, 20, 20, 20, 20, 20, 20, 20, 20,
        |  0,  0, 16, 16, 19,  0, 16,  0,  0,  5, 19, 19, 19, 17, 16,  5, 16, 17, 17, 16, 19,  0,  5,  5, 19,  0, 17, 17,  0, 19,  4,  4,  4,  4,  4,  4,  4,  4,  4,  4,  4,  4,  4,  4,  4,  4,  4,  4,  4,  4,  4,  4,  4,  4,  4,  4,  4,  4,  4,  4,
        | 17, 17, 15, 15, 31, 17, 15, 17, 17, 16, 31, 31, 31,  0, 15, 16, 15,  0,  0, 15, 31, 17, 16, 16, 31, 17,  0,  0, 17, 31, 14, 14, 14, 14, 14, 14, 14, 14, 14, 14, 14, 14, 14, 14, 14, 14, 14, 14, 14, 14, 14, 14, 14, 14, 14, 14, 14, 14, 14, 14,
        | 17, 17, 15, 15, 31, 17, 15, 17, 17, 16, 31, 31, 31,  0, 15, 16, 15,  0,  0, 15, 31, 17, 16, 16, 31, 17,  0,  0, 17, 31, 14, 14, 14, 14, 14, 14, 14, 14, 14, 14, 14, 14, 14, 14, 14, 14, 14, 14, 14, 14, 14, 14, 14, 14, 14, 14, 14, 14, 14, 14,
        |  0,  0, 16, 16, 19,  0, 16,  0,  0,  5, 19, 19, 19, 17, 16,  5, 16, 17, 17, 16, 19,  0,  5,  5, 19,  0, 17, 17,  0, 19,  4,  4,  4,  4,  4,  4,  4,  4,  4,  4,  4,  4,  4,  4,  4,  4,  4,  4,  4,  4,  4,  4,  4,  4,  4,  4,  4,  4,  4,  4,
        | 19, 19, 18, 18,  0, 19, 18, 19, 19, 23,  0,  0,  0, 31, 18, 23, 18, 31, 31, 18,  0, 19, 23, 23,  0, 19, 31, 31, 19,  0, 20, 20, 20, 20, 20, 20, 20, 20, 20, 20, 20, 20, 20, 20, 20, 20, 20, 20, 20, 20, 20, 20, 20, 20, 20, 20, 20, 20, 20, 20,
        |  4,  4, 13, 13, 20,  4, 13,  4,  4,  7, 20, 20, 20, 14, 13,  7, 13, 14, 14, 13, 20,  4,  7,  7, 20,  4, 14, 14,  4, 20,  0,  0,  0,  0,  0,  0,  0,  0,  0,  0,  0,  0,  0,  0,  0,  0,  0,  0,  0,  0,  0,  0,  0,  0,  0,  0,  0,  0,  0,  0,
        |  4,  4, 13, 13, 20,  4, 13,  4,  4,  7, 20, 20, 20, 14, 13,  7, 13, 14, 14, 13, 20,  4,  7,  7, 20,  4, 14, 14,  4, 20,  0,  0,  0,  0,  0,  0,  0,  0,  0,  0,  0,  0,  0,  0,  0,  0,  0,  0,  0,  0,  0,  0,  0,  0,  0,  0,  0,  0,  0,  0,
        |  4,  4, 13, 13, 20,  4, 13,  4,  4,  7, 20, 20, 20, 14, 13,  7, 13, 14, 14, 13, 20,  4,  7,  7, 20,  4, 14, 14,  4, 20,  0,  0,  0,  0,  0,  0,  0,  0,  0,  0,  0,  0,  0,  0,  0,  0,  0,  0,  0,  0,  0,  0,  0,  0,  0,  0,  0,  0,  0,  0,
        |  4,  4, 13, 13, 20,  4, 13,  4,  4,  7, 20, 20, 20, 14, 13,  7, 13, 14, 14, 13, 20,  4,  7,  7, 20,  4, 14, 14,  4, 20,  0,  0,  0,  0,  0,  0,  0,  0,  0,  0,  0,  0,  0,  0,  0,  0,  0,  0,  0,  0,  0,  0,  0,  0,  0,  0,  0,  0,  0,  0,
        |  4,  4, 13, 13, 20,  4, 13,  4,  4,  7, 20, 20, 20, 14, 13,  7, 13, 14, 14, 13, 20,  4,  7,  7, 20,  4, 14, 14,  4, 20,  0,  0,  0,  0,  0,  0,  0,  0,  0,  0,  0,  0,  0,  0,  0,  0,  0,  0,  0,  0,  0,  0,  0,  0,  0,  0,  0,  0,  0,  0,
        |  4,  4, 13, 13, 20,  4, 13,  4,  4,  7, 20, 20, 20, 14, 13,  7, 13, 14, 14, 13, 20,  4,  7,  7, 20,  4, 14, 14,  4, 20,  0,  0,  0,  0,  0,  0,  0,  0,  0,  0,  0,  0,  0,  0,  0,  0,  0,  0,  0,  0,  0,  0,  0,  0,  0,  0,  0,  0,  0,  0,
        |  4,  4, 13, 13, 20,  4, 13,  4,  4,  7, 20, 20, 20, 14, 13,  7, 13, 14, 14, 13, 20,  4,  7,  7, 20,  4, 14, 14,  4, 20,  0,  0,  0,  0,  0,  0,  0,  0,  0,  0,  0,  0,  0,  0,  0,  0,  0,  0,  0,  0,  0,  0,  0,  0,  0,  0,  0,  0,  0,  0,
        |  4,  4, 13, 13, 20,  4, 13,  4,  4,  7, 20, 20, 20, 14, 13,  7, 13, 14, 14, 13, 20,  4,  7,  7, 20,  4, 14, 14,  4, 20,  0,  0,  0,  0,  0,  0,  0,  0,  0,  0,  0,  0,  0,  0,  0,  0,  0,  0,  0,  0,  0,  0,  0,  0,  0,  0,  0,  0,  0,  0,
        |  4,  4, 13, 13, 20,  4, 13,  4,  4,  7, 20, 20, 20, 14, 13,  7, 13, 14, 14, 13, 20,  4,  7,  7, 20,  4, 14, 14,  4, 20,  0,  0,  0,  0,  0,  0,  0,  0,  0,  0,  0,  0,  0,  0,  0,  0,  0,  0,  0,  0,  0,  0,  0,  0,  0,  0,  0,  0,  0,  0,
        |  4,  4, 13, 13, 20,  4, 13,  4,  4,  7, 20, 20, 20, 14, 13,  7, 13, 14, 14, 13, 20,  4,  7,  7, 20,  4, 14, 14,  4, 20,  0,  0,  0,  0,  0,  0,  0,  0,  0,  0,  0,  0,  0,  0,  0,  0,  0,  0,  0,  0,  0,  0,  0,  0,  0,  0,  0,  0,  0,  0,
        |  4,  4, 13, 13, 20,  4, 13,  4,  4,  7, 20, 20, 20, 14, 13,  7, 13, 14, 14, 13, 20,  4,  7,  7, 20,  4, 14, 14,  4, 20,  0,  0,  0,  0,  0,  0,  0,  0,  0,  0,  0,  0,  0,  0,  0,  0,  0,  0,  0,  0,  0,  0,  0,  0,  0,  0,  0,  0,  0,  0,
        |  4,  4, 13, 13, 20,  4, 13,  4,  4,  7, 20, 20, 20, 14, 13,  7, 13, 14, 14, 13, 20,  4,  7,  7, 20,  4, 14, 14,  4, 20,  0,  0,  0,  0,  0,  0,  0,  0,  0,  0,  0,  0,  0,  0,  0,  0,  0,  0,  0,  0,  0,  0,  0,  0,  0,  0,  0,  0,  0,  0,
        |  4,  4, 13, 13, 20,  4, 13,  4,  4,  7, 20, 20, 20, 14, 13,  7, 13, 14, 14, 13, 20,  4,  7,  7, 20,  4, 14, 14,  4, 20,  0,  0,  0,  0,  0,  0,  0,  0,  0,  0,  0,  0,  0,  0,  0,  0,  0,  0,  0,  0,  0,  0,  0,  0,  0,  0,  0,  0,  0,  0,
        |  4,  4, 13, 13, 20,  4, 13,  4,  4,  7, 20, 20, 20, 14, 13,  7, 13, 14, 14, 13, 20,  4,  7,  7, 20,  4, 14, 14,  4, 20,  0,  0,  0,  0,  0,  0,  0,  0,  0,  0,  0,  0,  0,  0,  0,  0,  0,  0,  0,  0,  0,  0,  0,  0,  0,  0,  0,  0,  0,  0,
        |  4,  4, 13, 13, 20,  4, 13,  4,  4,  7, 20, 20, 20, 14, 13,  7, 13, 14, 14, 13, 20,  4,  7,  7, 20,  4, 14, 14,  4, 20,  0,  0,  0,  0,  0,  0,  0,  0,  0,  0,  0,  0,  0,  0,  0,  0,  0,  0,  0,  0,  0,  0,  0,  0,  0,  0,  0,  0,  0,  0,
        |  4,  4, 13, 13, 20,  4, 13,  4,  4,  7, 20, 20, 20, 14, 13,  7, 13, 14, 14, 13, 20,  4,  7,  7, 20,  4, 14, 14,  4, 20,  0,  0,  0,  0,  0,  0,  0,  0,  0,  0,  0,  0,  0,  0,  0,  0,  0,  0,  0,  0,  0,  0,  0,  0,  0,  0,  0,  0,  0,  0,
        |  4,  4, 13, 13, 20,  4, 13,  4,  4,  7, 20, 20, 20, 14, 13,  7, 13, 14, 14, 13, 20,  4,  7,  7, 20,  4, 14, 14,  4, 20,  0,  0,  0,  0,  0,  0,  0,  0,  0,  0,  0,  0,  0,  0,  0,  0,  0,  0,  0,  0,  0,  0,  0,  0,  0,  0,  0,  0,  0,  0,
        |  4,  4, 13, 13, 20,  4, 13,  4,  4,  7, 20, 20, 20, 14, 13,  7, 13, 14, 14, 13, 20,  4,  7,  7, 20,  4, 14, 14,  4, 20,  0,  0,  0,  0,  0,  0,  0,  0,  0,  0,  0,  0,  0,  0,  0,  0,  0,  0,  0,  0,  0,  0,  0,  0,  0,  0,  0,  0,  0,  0,
        |  4,  4, 13, 13, 20,  4, 13,  4,  4,  7, 20, 20, 20, 14, 13,  7, 13, 14, 14, 13, 20,  4,  7,  7, 20,  4, 14, 14,  4, 20,  0,  0,  0,  0,  0,  0,  0,  0,  0,  0,  0,  0,  0,  0,  0,  0,  0,  0,  0,  0,  0,  0,  0,  0,  0,  0,  0,  0,  0,  0,
        |  4,  4, 13, 13, 20,  4, 13,  4,  4,  7, 20, 20, 20, 14, 13,  7, 13, 14, 14, 13, 20,  4,  7,  7, 20,  4, 14, 14,  4, 20,  0,  0,  0,  0,  0,  0,  0,  0,  0,  0,  0,  0,  0,  0,  0,  0,  0,  0,  0,  0,  0,  0,  0,  0,  0,  0,  0,  0,  0,  0,
        |  4,  4, 13, 13, 20,  4, 13,  4,  4,  7, 20, 20, 20, 14, 13,  7, 13, 14, 14, 13, 20,  4,  7,  7, 20,  4, 14, 14,  4, 20,  0,  0,  0,  0,  0,  0,  0,  0,  0,  0,  0,  0,  0,  0,  0,  0,  0,  0,  0,  0,  0,  0,  0,  0,  0,  0,  0,  0,  0,  0,
        |  4,  4, 13, 13, 20,  4, 13,  4,  4,  7, 20, 20, 20, 14, 13,  7, 13, 14, 14, 13, 20,  4,  7,  7, 20,  4, 14, 14,  4, 20,  0,  0,  0,  0,  0,  0,  0,  0,  0,  0,  0,  0,  0,  0,  0,  0,  0,  0,  0,  0,  0,  0,  0,  0,  0,  0,  0,  0,  0,  0,
        |  4,  4, 13, 13, 20,  4, 13,  4,  4,  7, 20, 20, 20, 14, 13,  7, 13, 14, 14, 13, 20,  4,  7,  7, 20,  4, 14, 14,  4, 20,  0,  0,  0,  0,  0,  0,  0,  0,  0,  0,  0,  0,  0,  0,  0,  0,  0,  0,  0,  0,  0,  0,  0,  0,  0,  0,  0,  0,  0,  0,
        |  4,  4, 13, 13, 20,  4, 13,  4,  4,  7, 20, 20, 20, 14, 13,  7, 13, 14, 14, 13, 20,  4,  7,  7, 20,  4, 14, 14,  4, 20,  0,  0,  0,  0,  0,  0,  0,  0,  0,  0,  0,  0,  0,  0,  0,  0,  0,  0,  0,  0,  0,  0,  0,  0,  0,  0,  0,  0,  0,  0,
        |  4,  4, 13, 13, 20,  4, 13,  4,  4,  7, 20, 20, 20, 14, 13,  7, 13, 14, 14, 13, 20,  4,  7,  7, 20,  4, 14, 14,  4, 20,  0,  0,  0,  0,  0,  0,  0,  0,  0,  0,  0,  0,  0,  0,  0,  0,  0,  0,  0,  0,  0,  0,  0,  0,  0,  0,  0,  0,  0,  0,
        |  4,  4, 13, 13, 20,  4, 13,  4,  4,  7, 20, 20, 20, 14, 13,  7, 13, 14, 14, 13, 20,  4,  7,  7, 20,  4, 14, 14,  4, 20,  0,  0,  0,  0,  0,  0,  0,  0,  0,  0,  0,  0,  0,  0,  0,  0,  0,  0,  0,  0,  0,  0,  0,  0,  0,  0,  0,  0,  0,  0,
        |  4,  4, 13, 13, 20,  4, 13,  4,  4,  7, 20, 20, 20, 14, 13,  7, 13, 14, 14, 13, 20,  4,  7,  7, 20,  4, 14, 14,  4, 20,  0,  0,  0,  0,  0,  0,  0,  0,  0,  0,  0,  0,  0,  0,  0,  0,  0,  0,  0,  0,  0,  0,  0,  0,  0,  0,  0,  0,  0,  0,
        |  4,  4, 13, 13, 20,  4, 13,  4,  4,  7, 20, 20, 20, 14, 13,  7, 13, 14, 14, 13, 20,  4,  7,  7, 20,  4, 14, 14,  4, 20,  0,  0,  0,  0,  0,  0,  0,  0,  0,  0,  0,  0,  0,  0,  0,  0,  0,  0,  0,  0,  0,  0,  0,  0,  0,  0,  0,  0,  0,  0,
        |  4,  4, 13, 13, 20,  4, 13,  4,  4,  7, 20, 20, 20, 14, 13,  7, 13, 14, 14, 13, 20,  4,  7,  7, 20,  4, 14, 14,  4, 20,  0,  0,  0,  0,  0,  0,  0,  0,  0,  0,  0,  0,  0,  0,  0,  0,  0,  0,  0,  0,  0,  0,  0,  0,  0,  0,  0,  0,  0,  0,
        |  4,  4, 13, 13, 20,  4, 13,  4,  4,  7, 20, 20, 20, 14, 13,  7, 13, 14, 14, 13, 20,  4,  7,  7, 20,  4, 14, 14,  4, 20,  0,  0,  0,  0,  0,  0,  0,  0,  0,  0,  0,  0,  0,  0,  0,  0,  0,  0,  0,  0,  0,  0,  0,  0,  0,  0,  0,  0,  0,  0|];
l =     [  3,  3,  5,  5,  1,  3,  5,  3,  3,  2,  1,  1,  1,  4,  5,  2,  5,  4,  4,  5,  1,  3,  2,  2,  1,  3,  4,  4,  3,  1];
a =     [  4, 25, 32, 14, 20,  4, 45, 36, 27,  7, 20, 20, 20, 22, 13, 28, 54, 61, 48, 51, 35, 74, 52, 42, 45, 56, 68, 62, 56, 45];
b =     [ 33, 41, 59, 32, 51, 29, 77, 69, 48, 29, 51, 57, 35, 53, 38, 79,121,104,114,114, 94,124,110, 83, 99,119,109,108,125,111];
s =     [ 19, 13, 14, 19, 13, 12, 13, 11, 10, 15, 17, 17, 11, 17, 14, 19, 13, 14, 19, 13, 12, 13, 11, 10, 15, 17, 17, 11, 17, 14];
q =     [  4,  2,  1,  1,  4,  4,  2,  4,  3,  1,  1,  4,  3,  3,  4, -4, -2, -1, -1, -4, -4, -2, -4, -3, -1, -1, -4, -3, -3, -4];
